benchmark/results/graph__15-1000-0.10-04_10/error_log/graph__15-1000-0.10-04_10_Quinton_Benders_primal_sub_ERRORLOG.lp
\ This file has been generated by DOcplex
\ ENCODING=ISO-8859-1
\Problem name: Quinton Benders_primal_sub

Maximize
 obj: tau
Subject To
 c1: tau <= 0.000874125874
 c2: y_a0_proc_2 - tau = 0
 c3: y_a0_proc_2 <= 1
 c4: tau <= 0.001063829787
 c5: y_a1_proc_0 + y_a1_proc_1 + y_a1_proc_2 + y_a1_proc_3 - tau = 0
 c6: y_a1_proc_0 <= 0
 c7: y_a1_proc_1 <= 1
 c8: y_a1_proc_2 <= 0
 c9: y_a1_proc_3 <= 0
 c10: tau <= 0.001414427157
 c11: y_a2_proc_0 + y_a2_proc_1 + y_a2_proc_2 + y_a2_proc_3 - tau = 0
 c12: y_a2_proc_0 <= 0
 c13: y_a2_proc_1 <= 1
 c14: y_a2_proc_2 <= 0
 c15: y_a2_proc_3 <= 0
 c16: tau <= 0.001223990208
 c17: y_a3_proc_0 + y_a3_proc_3 - tau = 0
 c18: y_a3_proc_0 <= 1
 c19: y_a3_proc_3 <= 0
 c20: tau <= 0.000830564784
 c21: y_a4_proc_0 + y_a4_proc_1 + y_a4_proc_2 + y_a4_proc_3 - tau = 0
 c22: y_a4_proc_0 <= 0
 c23: y_a4_proc_1 <= 0
 c24: y_a4_proc_2 <= 0
 c25: y_a4_proc_3 <= 1
 c26: tau <= 0.001066098081
 c27: y_a5_proc_1 + y_a5_proc_2 - tau = 0
 c28: y_a5_proc_1 <= 0
 c29: y_a5_proc_2 <= 1
 c30: tau <= 0.002020202020
 c31: y_a6_proc_0 + y_a6_proc_1 + y_a6_proc_2 + y_a6_proc_3 - tau = 0
 c32: y_a6_proc_0 <= 0
 c33: y_a6_proc_1 <= 0
 c34: y_a6_proc_2 <= 1
 c35: y_a6_proc_3 <= 0
 c36: tau <= 0.000839630563
 c37: y_a7_proc_0 + y_a7_proc_1 + y_a7_proc_2 + y_a7_proc_3 - tau = 0
 c38: y_a7_proc_0 <= 1
 c39: y_a7_proc_1 <= 0
 c40: y_a7_proc_2 <= 0
 c41: y_a7_proc_3 <= 0
 c42: tau <= 0.001026694045
 c43: y_a8_proc_0 + y_a8_proc_1 + y_a8_proc_3 - tau = 0
 c44: y_a8_proc_0 <= 1
 c45: y_a8_proc_1 <= 0
 c46: y_a8_proc_3 <= 0
 c47: tau <= 0.001078748652
 c48: y_a9_proc_0 + y_a9_proc_1 + y_a9_proc_3 - tau = 0
 c49: y_a9_proc_0 <= 1
 c50: y_a9_proc_1 <= 0
 c51: y_a9_proc_3 <= 0
 c52: tau <= 0.000881834215
 c53: y_a10_proc_0 + y_a10_proc_1 + y_a10_proc_3 - tau = 0
 c54: y_a10_proc_0 <= 0
 c55: y_a10_proc_1 <= 1
 c56: y_a10_proc_3 <= 0
 c57: tau <= 0.001499250375
 c58: y_a11_proc_0 + y_a11_proc_1 + y_a11_proc_2 + y_a11_proc_3 - tau = 0
 c59: y_a11_proc_0 <= 0
 c60: y_a11_proc_1 <= 0
 c61: y_a11_proc_2 <= 0
 c62: y_a11_proc_3 <= 1
 c63: tau <= 0.001579778831
 c64: y_a12_proc_1 + y_a12_proc_2 + y_a12_proc_3 - tau = 0
 c65: y_a12_proc_1 <= 0
 c66: y_a12_proc_2 <= 1
 c67: y_a12_proc_3 <= 0
 c68: tau <= 0.000848176421
 c69: y_a13_proc_0 + y_a13_proc_3 - tau = 0
 c70: y_a13_proc_0 <= 0
 c71: y_a13_proc_3 <= 1
 c72: tau <= 0.000993048659
 c73: y_a14_proc_0 + y_a14_proc_2 - tau = 0
 c74: y_a14_proc_0 <= 1
 c75: y_a14_proc_2 <= 0
 c76: u_a1 - u_a0 - 1144 y_a0_proc_2 >= 0
 c77: u_a1 - u_a2 - 687 y_a2_proc_0 - 707 y_a2_proc_1 - 731 y_a2_proc_2
      - 1299 y_a2_proc_3 >= 0
 c78: u_a3 - u_a1 - 1180 y_a1_proc_0 - 940 y_a1_proc_1 - 544 y_a1_proc_2
      - 459 y_a1_proc_3 >= 0
 c79: u_a2 - u_a4 - 1293 y_a4_proc_0 - 1083 y_a4_proc_1 - 311 y_a4_proc_2
      - 1204 y_a4_proc_3 >= 0
 c80: u_a0 - u_a5 - 478 y_a5_proc_1 - 938 y_a5_proc_2 >= 0
 c81: u_a6 - u_a3 - 817 y_a3_proc_0 - 1013 y_a3_proc_3 >= -1
 c82: u_a7 - u_a1 - 1180 y_a1_proc_0 - 940 y_a1_proc_1 - 544 y_a1_proc_2
      - 459 y_a1_proc_3 >= 0
 c83: u_a8 - u_a7 - 1191 y_a7_proc_0 - 950 y_a7_proc_1 - 1158 y_a7_proc_2
      - 1228 y_a7_proc_3 >= -1
 c84: u_a9 - u_a2 - 687 y_a2_proc_0 - 707 y_a2_proc_1 - 731 y_a2_proc_2
      - 1299 y_a2_proc_3 >= 0
 c85: u_a8 - u_a10 - 869 y_a10_proc_0 - 1134 y_a10_proc_1 - 625 y_a10_proc_3
       >= 0
 c86: u_a11 - u_a6 - 750 y_a6_proc_0 - 812 y_a6_proc_1 - 495 y_a6_proc_2
      - 426 y_a6_proc_3 >= 0
 c87: u_a6 - u_a12 - 748 y_a12_proc_1 - 633 y_a12_proc_2 - 497 y_a12_proc_3 >= 
      -1
 c88: u_a13 - u_a2 - 687 y_a2_proc_0 - 707 y_a2_proc_1 - 731 y_a2_proc_2
      - 1299 y_a2_proc_3 >= 0
 c89: u_a10 - u_a14 - 1007 y_a14_proc_0 - 1174 y_a14_proc_2 >= -1
 c90: u_a12 - u_a9 - 927 y_a9_proc_0 - 1070 y_a9_proc_1 - 1035 y_a9_proc_3 >= 0
 c91: u_a4 - u_a13 - 659 y_a13_proc_0 - 1179 y_a13_proc_3 >= -1
 c92: u_a14 - u_a6 - 750 y_a6_proc_0 - 812 y_a6_proc_1 - 495 y_a6_proc_2
      - 426 y_a6_proc_3 >= 0
 c93: u_a0 - u_a11 - 1072 y_a11_proc_0 - 1216 y_a11_proc_1 - 815 y_a11_proc_2
      - 667 y_a11_proc_3 >= 0
 c94: u_a0 - u_a8 - 974 y_a8_proc_0 - 845 y_a8_proc_1 - 1053 y_a8_proc_3 >= 0
 c95: - 659 y_a13_proc_0 - 1179 y_a13_proc_3 >= -1
 c96: u_a12 - u_a14 - 1007 y_a14_proc_0 - 1174 y_a14_proc_2 >= 0
 c97: u_a1 - u_a9 - 927 y_a9_proc_0 - 1070 y_a9_proc_1 - 1035 y_a9_proc_3 >= 0
 c98: u_a13 - u_a9 - 927 y_a9_proc_0 - 1070 y_a9_proc_1 - 1035 y_a9_proc_3 >= 0
 c99: u_a6 - u_a13 - 659 y_a13_proc_0 - 1179 y_a13_proc_3 >= 0
 c100: u_a1 - u_a0 - 1144 y_a0_proc_2 >= -2598
 c101: u_a0 - u_a1 - 544 y_a1_proc_2 >= -1
 c102: u_a2 - u_a0 - 1144 y_a0_proc_2 >= -2599
 c103: u_a0 - u_a2 - 731 y_a2_proc_2 >= 0
 c104: u_a4 - u_a0 - 1144 y_a0_proc_2 >= -2599
 c105: u_a0 - u_a4 - 311 y_a4_proc_2 >= 0
 c106: u_a5 - u_a0 - 1144 y_a0_proc_2 >= -999998702
 c107: u_a0 - u_a5 - 938 y_a5_proc_2 >= 999998701
 c108: u_a6 - u_a0 - 1144 y_a0_proc_2 >= -1
 c109: u_a0 - u_a6 - 495 y_a6_proc_2 >= 0
 c110: u_a7 - u_a0 - 1144 y_a0_proc_2 >= -2598
 c111: u_a0 - u_a7 - 1158 y_a7_proc_2 >= -1
 c112: u_a11 - u_a0 - 1144 y_a0_proc_2 >= -2599
 c113: u_a0 - u_a11 - 815 y_a11_proc_2 >= 0
 c114: u_a12 - u_a0 - 1144 y_a0_proc_2 >= -1
 c115: u_a0 - u_a12 - 633 y_a12_proc_2 >= 0
 c116: u_a14 - u_a0 - 1144 y_a0_proc_2 >= -2599
 c117: u_a0 - u_a14 - 1174 y_a14_proc_2 >= 0
 c118: u_a2 - u_a1 - 1180 y_a1_proc_0 >= -2599
 c119: u_a2 - u_a1 - 544 y_a1_proc_2 >= -2599
 c120: u_a2 - u_a1 - 459 y_a1_proc_3 >= -2599
 c121: u_a2 - u_a1 - 940 y_a1_proc_1 >= -1
 c122: u_a1 - u_a2 - 687 y_a2_proc_0 >= -2598
 c123: u_a1 - u_a2 - 731 y_a2_proc_2 >= -2598
 c124: u_a1 - u_a2 - 1299 y_a2_proc_3 >= -2598
 c125: u_a1 - u_a2 - 707 y_a2_proc_1 >= 0
 c126: u_a3 - u_a1 - 1180 y_a1_proc_0 >= -1
 c127: u_a3 - u_a1 - 459 y_a1_proc_3 >= -1300
 c128: u_a1 - u_a3 - 817 y_a3_proc_0 >= -2598
 c129: u_a1 - u_a3 - 1013 y_a3_proc_3 >= -3897
 c130: u_a4 - u_a1 - 1180 y_a1_proc_0 >= -3898
 c131: u_a4 - u_a1 - 544 y_a1_proc_2 >= -3898
 c132: u_a4 - u_a1 - 459 y_a1_proc_3 >= -2599
 c133: u_a4 - u_a1 - 940 y_a1_proc_1 >= -2599
 c134: u_a1 - u_a4 - 1293 y_a4_proc_0 >= -1299
 c135: u_a1 - u_a4 - 311 y_a4_proc_2 >= -1299
 c136: u_a1 - u_a4 - 1204 y_a4_proc_3 >= 0
 c137: u_a1 - u_a4 - 1083 y_a4_proc_1 >= 0
 c138: u_a5 - u_a1 - 544 y_a1_proc_2 >= -1000001299
 c139: u_a5 - u_a1 - 940 y_a1_proc_1 >= -1000001299
 c140: u_a1 - u_a5 - 938 y_a5_proc_2 >= 999998700
 c141: u_a1 - u_a5 - 478 y_a5_proc_1 >= 999998700
 c142: u_a6 - u_a1 - 1180 y_a1_proc_0 >= -3898
 c143: u_a6 - u_a1 - 544 y_a1_proc_2 >= -2599
 c144: u_a6 - u_a1 - 459 y_a1_proc_3 >= -3898
 c145: u_a6 - u_a1 - 940 y_a1_proc_1 >= -2599
 c146: u_a1 - u_a6 - 750 y_a6_proc_0 >= -1299
 c147: u_a1 - u_a6 - 495 y_a6_proc_2 >= 0
 c148: u_a1 - u_a6 - 426 y_a6_proc_3 >= -1299
 c149: u_a1 - u_a6 - 812 y_a6_proc_1 >= 0
 c150: u_a7 - u_a1 - 1180 y_a1_proc_0 >= -2598
 c151: u_a7 - u_a1 - 544 y_a1_proc_2 >= -3897
 c152: u_a7 - u_a1 - 459 y_a1_proc_3 >= -3897
 c153: u_a7 - u_a1 - 940 y_a1_proc_1 >= -2598
 c154: u_a1 - u_a7 - 1191 y_a7_proc_0 >= -1
 c155: u_a1 - u_a7 - 1158 y_a7_proc_2 >= -1300
 c156: u_a1 - u_a7 - 1228 y_a7_proc_3 >= -1300
 c157: u_a1 - u_a7 - 950 y_a7_proc_1 >= -1
 c158: u_a8 - u_a1 - 1180 y_a1_proc_0 >= -2599
 c159: u_a8 - u_a1 - 459 y_a1_proc_3 >= -3898
 c160: u_a8 - u_a1 - 940 y_a1_proc_1 >= -2599
 c161: u_a1 - u_a8 - 974 y_a8_proc_0 >= 0
 c162: u_a1 - u_a8 - 1053 y_a8_proc_3 >= -1299
 c163: u_a1 - u_a8 - 845 y_a8_proc_1 >= 0
 c164: u_a9 - u_a1 - 1180 y_a1_proc_0 >= -2599
 c165: u_a9 - u_a1 - 459 y_a1_proc_3 >= -3898
 c166: u_a9 - u_a1 - 940 y_a1_proc_1 >= -2599
 c167: u_a1 - u_a9 - 927 y_a9_proc_0 >= 0
 c168: u_a1 - u_a9 - 1035 y_a9_proc_3 >= -1299
 c169: u_a1 - u_a9 - 1070 y_a9_proc_1 >= 0
 c170: u_a10 - u_a1 - 1180 y_a1_proc_0 >= -2600
 c171: u_a10 - u_a1 - 459 y_a1_proc_3 >= -2600
 c172: u_a10 - u_a1 - 940 y_a1_proc_1 >= -2
 c173: u_a1 - u_a10 - 869 y_a10_proc_0 >= -2597
 c174: u_a1 - u_a10 - 625 y_a10_proc_3 >= -2597
 c175: u_a1 - u_a10 - 1134 y_a10_proc_1 >= 1
 c176: u_a11 - u_a1 - 1180 y_a1_proc_0 >= -3898
 c177: u_a11 - u_a1 - 544 y_a1_proc_2 >= -3898
 c178: u_a11 - u_a1 - 459 y_a1_proc_3 >= -2599
 c179: u_a11 - u_a1 - 940 y_a1_proc_1 >= -2599
 c180: u_a1 - u_a11 - 1072 y_a11_proc_0 >= -1299
 c181: u_a1 - u_a11 - 815 y_a11_proc_2 >= -1299
 c182: u_a1 - u_a11 - 667 y_a11_proc_3 >= 0
 c183: u_a1 - u_a11 - 1216 y_a11_proc_1 >= 0
 c184: u_a12 - u_a1 - 544 y_a1_proc_2 >= -2599
 c185: u_a12 - u_a1 - 459 y_a1_proc_3 >= -3898
 c186: u_a12 - u_a1 - 940 y_a1_proc_1 >= -2599
 c187: u_a1 - u_a12 - 633 y_a12_proc_2 >= 0
 c188: u_a1 - u_a12 - 497 y_a12_proc_3 >= -1299
 c189: u_a1 - u_a12 - 748 y_a12_proc_1 >= 0
 c190: u_a13 - u_a1 - 1180 y_a1_proc_0 >= -3898
 c191: u_a13 - u_a1 - 459 y_a1_proc_3 >= -2599
 c192: u_a1 - u_a13 - 659 y_a13_proc_0 >= -1299
 c193: u_a1 - u_a13 - 1179 y_a13_proc_3 >= 0
 c194: u_a14 - u_a1 - 1180 y_a1_proc_0 >= -2599
 c195: u_a14 - u_a1 - 544 y_a1_proc_2 >= -3898
 c196: u_a1 - u_a14 - 1007 y_a14_proc_0 >= 0
 c197: u_a1 - u_a14 - 1174 y_a14_proc_2 >= -1299
 c198: u_a3 - u_a2 - 687 y_a2_proc_0 >= -2598
 c199: u_a3 - u_a2 - 1299 y_a2_proc_3 >= -3897
 c200: u_a2 - u_a3 - 817 y_a3_proc_0 >= -1
 c201: u_a2 - u_a3 - 1013 y_a3_proc_3 >= -1300
 c202: u_a4 - u_a2 - 687 y_a2_proc_0 >= -3898
 c203: u_a4 - u_a2 - 731 y_a2_proc_2 >= -3898
 c204: u_a4 - u_a2 - 1299 y_a2_proc_3 >= -2599
 c205: u_a4 - u_a2 - 707 y_a2_proc_1 >= -2599
 c206: u_a2 - u_a4 - 1293 y_a4_proc_0 >= -1299
 c207: u_a2 - u_a4 - 311 y_a4_proc_2 >= -1299
 c208: u_a2 - u_a4 - 1204 y_a4_proc_3 >= 0
 c209: u_a2 - u_a4 - 1083 y_a4_proc_1 >= 0
 c210: u_a5 - u_a2 - 731 y_a2_proc_2 >= -1000001299
 c211: u_a5 - u_a2 - 707 y_a2_proc_1 >= -1000001299
 c212: u_a2 - u_a5 - 938 y_a5_proc_2 >= 999998700
 c213: u_a2 - u_a5 - 478 y_a5_proc_1 >= 999998700
 c214: u_a6 - u_a2 - 687 y_a2_proc_0 >= -3897
 c215: u_a6 - u_a2 - 731 y_a2_proc_2 >= -2598
 c216: u_a6 - u_a2 - 1299 y_a2_proc_3 >= -3897
 c217: u_a6 - u_a2 - 707 y_a2_proc_1 >= -2598
 c218: u_a2 - u_a6 - 750 y_a6_proc_0 >= -1300
 c219: u_a2 - u_a6 - 495 y_a6_proc_2 >= -1
 c220: u_a2 - u_a6 - 426 y_a6_proc_3 >= -1300
 c221: u_a2 - u_a6 - 812 y_a6_proc_1 >= -1
 c222: u_a7 - u_a2 - 687 y_a2_proc_0 >= -2597
 c223: u_a7 - u_a2 - 731 y_a2_proc_2 >= -3896
 c224: u_a7 - u_a2 - 1299 y_a2_proc_3 >= -3896
 c225: u_a7 - u_a2 - 707 y_a2_proc_1 >= -2597
 c226: u_a2 - u_a7 - 1191 y_a7_proc_0 >= -2
 c227: u_a2 - u_a7 - 1158 y_a7_proc_2 >= -1301
 c228: u_a2 - u_a7 - 1228 y_a7_proc_3 >= -1301
 c229: u_a2 - u_a7 - 950 y_a7_proc_1 >= -2
 c230: u_a8 - u_a2 - 687 y_a2_proc_0 >= -2598
 c231: u_a8 - u_a2 - 1299 y_a2_proc_3 >= -3897
 c232: u_a8 - u_a2 - 707 y_a2_proc_1 >= -2598
 c233: u_a2 - u_a8 - 974 y_a8_proc_0 >= -1
 c234: u_a2 - u_a8 - 1053 y_a8_proc_3 >= -1300
 c235: u_a2 - u_a8 - 845 y_a8_proc_1 >= -1
 c236: u_a9 - u_a2 - 687 y_a2_proc_0 >= -2598
 c237: u_a9 - u_a2 - 1299 y_a2_proc_3 >= -3897
 c238: u_a9 - u_a2 - 707 y_a2_proc_1 >= -2598
 c239: u_a2 - u_a9 - 927 y_a9_proc_0 >= -1
 c240: u_a2 - u_a9 - 1035 y_a9_proc_3 >= -1300
 c241: u_a2 - u_a9 - 1070 y_a9_proc_1 >= -1
 c242: u_a10 - u_a2 - 687 y_a2_proc_0 >= -2599
 c243: u_a10 - u_a2 - 1299 y_a2_proc_3 >= -2599
 c244: u_a10 - u_a2 - 707 y_a2_proc_1 >= -1
 c245: u_a2 - u_a10 - 869 y_a10_proc_0 >= -2598
 c246: u_a2 - u_a10 - 625 y_a10_proc_3 >= -2598
 c247: u_a2 - u_a10 - 1134 y_a10_proc_1 >= 0
 c248: u_a11 - u_a2 - 687 y_a2_proc_0 >= -3897
 c249: u_a11 - u_a2 - 731 y_a2_proc_2 >= -3897
 c250: u_a11 - u_a2 - 1299 y_a2_proc_3 >= -2598
 c251: u_a11 - u_a2 - 707 y_a2_proc_1 >= -2598
 c252: u_a2 - u_a11 - 1072 y_a11_proc_0 >= -1300
 c253: u_a2 - u_a11 - 815 y_a11_proc_2 >= -1300
 c254: u_a2 - u_a11 - 667 y_a11_proc_3 >= -1
 c255: u_a2 - u_a11 - 1216 y_a11_proc_1 >= -1
 c256: u_a12 - u_a2 - 731 y_a2_proc_2 >= -2598
 c257: u_a12 - u_a2 - 1299 y_a2_proc_3 >= -3897
 c258: u_a12 - u_a2 - 707 y_a2_proc_1 >= -2598
 c259: u_a2 - u_a12 - 633 y_a12_proc_2 >= -1
 c260: u_a2 - u_a12 - 497 y_a12_proc_3 >= -1300
 c261: u_a2 - u_a12 - 748 y_a12_proc_1 >= -1
 c262: u_a13 - u_a2 - 687 y_a2_proc_0 >= -3897
 c263: u_a13 - u_a2 - 1299 y_a2_proc_3 >= -2598
 c264: u_a2 - u_a13 - 659 y_a13_proc_0 >= -1300
 c265: u_a2 - u_a13 - 1179 y_a13_proc_3 >= -1
 c266: u_a14 - u_a2 - 687 y_a2_proc_0 >= -2598
 c267: u_a14 - u_a2 - 731 y_a2_proc_2 >= -3897
 c268: u_a2 - u_a14 - 1007 y_a14_proc_0 >= -1
 c269: u_a2 - u_a14 - 1174 y_a14_proc_2 >= -1300
 c270: u_a4 - u_a3 - 817 y_a3_proc_0 >= -1
 c271: u_a4 - u_a3 - 1013 y_a3_proc_3 >= -1
 c272: u_a3 - u_a4 - 1293 y_a4_proc_0 >= -2598
 c273: u_a3 - u_a4 - 1204 y_a4_proc_3 >= -2598
 c274: u_a6 - u_a3 - 817 y_a3_proc_0 >= -2599
 c275: u_a6 - u_a3 - 1013 y_a3_proc_3 >= -3898
 c276: u_a3 - u_a6 - 750 y_a6_proc_0 >= 0
 c277: u_a3 - u_a6 - 426 y_a6_proc_3 >= -1299
 c278: u_a7 - u_a3 - 817 y_a3_proc_0 >= 0
 c279: u_a7 - u_a3 - 1013 y_a3_proc_3 >= -2598
 c280: u_a3 - u_a7 - 1191 y_a7_proc_0 >= -1
 c281: u_a3 - u_a7 - 1228 y_a7_proc_3 >= -2599
 c282: u_a8 - u_a3 - 817 y_a3_proc_0 >= -1
 c283: u_a8 - u_a3 - 1013 y_a3_proc_3 >= -2599
 c284: u_a3 - u_a8 - 974 y_a8_proc_0 >= 0
 c285: u_a3 - u_a8 - 1053 y_a8_proc_3 >= -2598
 c286: u_a9 - u_a3 - 817 y_a3_proc_0 >= -1
 c287: u_a9 - u_a3 - 1013 y_a3_proc_3 >= -2599
 c288: u_a3 - u_a9 - 927 y_a9_proc_0 >= 0
 c289: u_a3 - u_a9 - 1035 y_a9_proc_3 >= -2598
 c290: u_a10 - u_a3 - 817 y_a3_proc_0 >= -2600
 c291: u_a10 - u_a3 - 1013 y_a3_proc_3 >= -3899
 c292: u_a3 - u_a10 - 869 y_a10_proc_0 >= 1
 c293: u_a3 - u_a10 - 625 y_a10_proc_3 >= -1298
 c294: u_a11 - u_a3 - 817 y_a3_proc_0 >= -2599
 c295: u_a11 - u_a3 - 1013 y_a3_proc_3 >= -2599
 c296: u_a3 - u_a11 - 1072 y_a11_proc_0 >= 0
 c297: u_a3 - u_a11 - 667 y_a11_proc_3 >= 0
 c298: u_a12 - u_a3 - 1013 y_a3_proc_3 >= -5197
 c299: u_a3 - u_a12 - 497 y_a12_proc_3 >= 0
 c300: u_a13 - u_a3 - 817 y_a3_proc_0 >= -2599
 c301: u_a13 - u_a3 - 1013 y_a3_proc_3 >= -2599
 c302: u_a3 - u_a13 - 659 y_a13_proc_0 >= 0
 c303: u_a3 - u_a13 - 1179 y_a13_proc_3 >= 0
 c304: u_a14 - u_a3 - 817 y_a3_proc_0 >= -1
 c305: u_a3 - u_a14 - 1007 y_a14_proc_0 >= 0
 c306: u_a5 - u_a4 - 311 y_a4_proc_2 >= -1000001299
 c307: u_a5 - u_a4 - 1083 y_a4_proc_1 >= -1000002598
 c308: u_a4 - u_a5 - 938 y_a5_proc_2 >= 999998700
 c309: u_a4 - u_a5 - 478 y_a5_proc_1 >= 999997401
 c310: u_a6 - u_a4 - 1293 y_a4_proc_0 >= -3897
 c311: u_a6 - u_a4 - 311 y_a4_proc_2 >= -2598
 c312: u_a6 - u_a4 - 1204 y_a4_proc_3 >= -2598
 c313: u_a6 - u_a4 - 1083 y_a4_proc_1 >= -3897
 c314: u_a4 - u_a6 - 750 y_a6_proc_0 >= -1300
 c315: u_a4 - u_a6 - 495 y_a6_proc_2 >= -1
 c316: u_a4 - u_a6 - 426 y_a6_proc_3 >= -1
 c317: u_a4 - u_a6 - 812 y_a6_proc_1 >= -1300
 c318: u_a7 - u_a4 - 1293 y_a4_proc_0 >= -2597
 c319: u_a7 - u_a4 - 311 y_a4_proc_2 >= -3896
 c320: u_a7 - u_a4 - 1204 y_a4_proc_3 >= -2597
 c321: u_a7 - u_a4 - 1083 y_a4_proc_1 >= -3896
 c322: u_a4 - u_a7 - 1191 y_a7_proc_0 >= -2
 c323: u_a4 - u_a7 - 1158 y_a7_proc_2 >= -1301
 c324: u_a4 - u_a7 - 1228 y_a7_proc_3 >= -2
 c325: u_a4 - u_a7 - 950 y_a7_proc_1 >= -1301
 c326: u_a8 - u_a4 - 1293 y_a4_proc_0 >= 0
 c327: u_a8 - u_a4 - 1204 y_a4_proc_3 >= 0
 c328: u_a8 - u_a4 - 1083 y_a4_proc_1 >= -1299
 c329: u_a4 - u_a8 - 974 y_a8_proc_0 >= -2599
 c330: u_a4 - u_a8 - 1053 y_a8_proc_3 >= -2599
 c331: u_a4 - u_a8 - 845 y_a8_proc_1 >= -3898
 c332: u_a9 - u_a4 - 1293 y_a4_proc_0 >= -2598
 c333: u_a9 - u_a4 - 1204 y_a4_proc_3 >= -2598
 c334: u_a9 - u_a4 - 1083 y_a4_proc_1 >= -3897
 c335: u_a4 - u_a9 - 927 y_a9_proc_0 >= -1
 c336: u_a4 - u_a9 - 1035 y_a9_proc_3 >= -1
 c337: u_a4 - u_a9 - 1070 y_a9_proc_1 >= -1300
 c338: u_a10 - u_a4 - 1293 y_a4_proc_0 >= -3898
 c339: u_a10 - u_a4 - 1204 y_a4_proc_3 >= -2599
 c340: u_a10 - u_a4 - 1083 y_a4_proc_1 >= -2599
 c341: u_a4 - u_a10 - 869 y_a10_proc_0 >= -1299
 c342: u_a4 - u_a10 - 625 y_a10_proc_3 >= 0
 c343: u_a4 - u_a10 - 1134 y_a10_proc_1 >= 0
 c344: u_a11 - u_a4 - 1293 y_a4_proc_0 >= -2598
 c345: u_a11 - u_a4 - 311 y_a4_proc_2 >= -2598
 c346: u_a11 - u_a4 - 1204 y_a4_proc_3 >= 0
 c347: u_a11 - u_a4 - 1083 y_a4_proc_1 >= -2598
 c348: u_a4 - u_a11 - 1072 y_a11_proc_0 >= -2599
 c349: u_a4 - u_a11 - 815 y_a11_proc_2 >= -2599
 c350: u_a4 - u_a11 - 667 y_a11_proc_3 >= -1
 c351: u_a4 - u_a11 - 1216 y_a11_proc_1 >= -2599
 c352: u_a12 - u_a4 - 311 y_a4_proc_2 >= -2598
 c353: u_a12 - u_a4 - 1204 y_a4_proc_3 >= -2598
 c354: u_a12 - u_a4 - 1083 y_a4_proc_1 >= -3897
 c355: u_a4 - u_a12 - 633 y_a12_proc_2 >= -1
 c356: u_a4 - u_a12 - 497 y_a12_proc_3 >= -1
 c357: u_a4 - u_a12 - 748 y_a12_proc_1 >= -1300
 c358: u_a13 - u_a4 - 1293 y_a4_proc_0 >= -2598
 c359: u_a13 - u_a4 - 1204 y_a4_proc_3 >= 0
 c360: u_a4 - u_a13 - 659 y_a13_proc_0 >= -2599
 c361: u_a4 - u_a13 - 1179 y_a13_proc_3 >= -1
 c362: u_a14 - u_a4 - 1293 y_a4_proc_0 >= -2598
 c363: u_a14 - u_a4 - 311 y_a4_proc_2 >= -3897
 c364: u_a4 - u_a14 - 1007 y_a14_proc_0 >= -1
 c365: u_a4 - u_a14 - 1174 y_a14_proc_2 >= -1300
 c366: u_a6 - u_a5 - 938 y_a5_proc_2 >= 999998700
 c367: u_a6 - u_a5 - 478 y_a5_proc_1 >= 999996102
 c368: u_a5 - u_a6 - 495 y_a6_proc_2 >= -999998701
 c369: u_a5 - u_a6 - 812 y_a6_proc_1 >= -1000001299
 c370: u_a7 - u_a5 - 938 y_a5_proc_2 >= 999996104
 c371: u_a7 - u_a5 - 478 y_a5_proc_1 >= 999994805
 c372: u_a5 - u_a7 - 1158 y_a7_proc_2 >= -999998703
 c373: u_a5 - u_a7 - 950 y_a7_proc_1 >= -1000000002
 c374: u_a8 - u_a5 - 478 y_a5_proc_1 >= 999993505
 c375: u_a5 - u_a8 - 845 y_a8_proc_1 >= -999998702
 c376: u_a9 - u_a5 - 478 y_a5_proc_1 >= 999993504
 c377: u_a5 - u_a9 - 1070 y_a9_proc_1 >= -999998701
 c378: u_a10 - u_a5 - 478 y_a5_proc_1 >= 999996102
 c379: u_a5 - u_a10 - 1134 y_a10_proc_1 >= -999998701
 c380: u_a11 - u_a5 - 938 y_a5_proc_2 >= 999998700
 c381: u_a11 - u_a5 - 478 y_a5_proc_1 >= 999997401
 c382: u_a5 - u_a11 - 815 y_a11_proc_2 >= -1000001299
 c383: u_a5 - u_a11 - 1216 y_a11_proc_1 >= -1000002598
 c384: u_a12 - u_a5 - 938 y_a5_proc_2 >= 999998700
 c385: u_a12 - u_a5 - 478 y_a5_proc_1 >= 999996102
 c386: u_a5 - u_a12 - 633 y_a12_proc_2 >= -999998701
 c387: u_a5 - u_a12 - 748 y_a12_proc_1 >= -1000001299
 c388: u_a14 - u_a5 - 938 y_a5_proc_2 >= 999996102
 c389: u_a5 - u_a14 - 1174 y_a14_proc_2 >= -999998701
 c390: u_a7 - u_a6 - 750 y_a6_proc_0 >= -2597
 c391: u_a7 - u_a6 - 495 y_a6_proc_2 >= -2597
 c392: u_a7 - u_a6 - 426 y_a6_proc_3 >= -3896
 c393: u_a7 - u_a6 - 812 y_a6_proc_1 >= -3896
 c394: u_a6 - u_a7 - 1191 y_a7_proc_0 >= -2
 c395: u_a6 - u_a7 - 1158 y_a7_proc_2 >= -2
 c396: u_a6 - u_a7 - 1228 y_a7_proc_3 >= -1301
 c397: u_a6 - u_a7 - 950 y_a7_proc_1 >= -1301
 c398: u_a8 - u_a6 - 750 y_a6_proc_0 >= -2598
 c399: u_a8 - u_a6 - 426 y_a6_proc_3 >= -3897
 c400: u_a8 - u_a6 - 812 y_a6_proc_1 >= -3897
 c401: u_a6 - u_a8 - 974 y_a8_proc_0 >= -1
 c402: u_a6 - u_a8 - 1053 y_a8_proc_3 >= -1300
 c403: u_a6 - u_a8 - 845 y_a8_proc_1 >= -1300
 c404: u_a9 - u_a6 - 750 y_a6_proc_0 >= -2599
 c405: u_a9 - u_a6 - 426 y_a6_proc_3 >= -3898
 c406: u_a9 - u_a6 - 812 y_a6_proc_1 >= -3898
 c407: u_a6 - u_a9 - 927 y_a9_proc_0 >= 0
 c408: u_a6 - u_a9 - 1035 y_a9_proc_3 >= -1299
 c409: u_a6 - u_a9 - 1070 y_a9_proc_1 >= -1299
 c410: u_a10 - u_a6 - 750 y_a6_proc_0 >= -3898
 c411: u_a10 - u_a6 - 426 y_a6_proc_3 >= -3898
 c412: u_a10 - u_a6 - 812 y_a6_proc_1 >= -2599
 c413: u_a6 - u_a10 - 869 y_a10_proc_0 >= -1299
 c414: u_a6 - u_a10 - 625 y_a10_proc_3 >= -1299
 c415: u_a6 - u_a10 - 1134 y_a10_proc_1 >= 0
 c416: u_a11 - u_a6 - 750 y_a6_proc_0 >= -3897
 c417: u_a11 - u_a6 - 495 y_a6_proc_2 >= -2598
 c418: u_a11 - u_a6 - 426 y_a6_proc_3 >= -2598
 c419: u_a11 - u_a6 - 812 y_a6_proc_1 >= -3897
 c420: u_a6 - u_a11 - 1072 y_a11_proc_0 >= -1300
 c421: u_a6 - u_a11 - 815 y_a11_proc_2 >= -1
 c422: u_a6 - u_a11 - 667 y_a11_proc_3 >= -1
 c423: u_a6 - u_a11 - 1216 y_a11_proc_1 >= -1300
 c424: u_a12 - u_a6 - 495 y_a6_proc_2 >= 0
 c425: u_a12 - u_a6 - 426 y_a6_proc_3 >= -2598
 c426: u_a12 - u_a6 - 812 y_a6_proc_1 >= -2598
 c427: u_a6 - u_a12 - 633 y_a12_proc_2 >= -1
 c428: u_a6 - u_a12 - 497 y_a12_proc_3 >= -2599
 c429: u_a6 - u_a12 - 748 y_a12_proc_1 >= -2599
 c430: u_a13 - u_a6 - 750 y_a6_proc_0 >= -3898
 c431: u_a13 - u_a6 - 426 y_a6_proc_3 >= -2599
 c432: u_a6 - u_a13 - 659 y_a13_proc_0 >= -1299
 c433: u_a6 - u_a13 - 1179 y_a13_proc_3 >= 0
 c434: u_a14 - u_a6 - 750 y_a6_proc_0 >= -2598
 c435: u_a14 - u_a6 - 495 y_a6_proc_2 >= -2598
 c436: u_a6 - u_a14 - 1007 y_a14_proc_0 >= -1
 c437: u_a6 - u_a14 - 1174 y_a14_proc_2 >= -1
 c438: u_a8 - u_a7 - 1191 y_a7_proc_0 >= -1
 c439: u_a8 - u_a7 - 1228 y_a7_proc_3 >= -2599
 c440: u_a8 - u_a7 - 950 y_a7_proc_1 >= -2599
 c441: u_a7 - u_a8 - 974 y_a8_proc_0 >= 0
 c442: u_a7 - u_a8 - 1053 y_a8_proc_3 >= -2598
 c443: u_a7 - u_a8 - 845 y_a8_proc_1 >= -2598
 c444: u_a9 - u_a7 - 1191 y_a7_proc_0 >= -2
 c445: u_a9 - u_a7 - 1228 y_a7_proc_3 >= -2600
 c446: u_a9 - u_a7 - 950 y_a7_proc_1 >= -2600
 c447: u_a7 - u_a9 - 927 y_a9_proc_0 >= 1
 c448: u_a7 - u_a9 - 1035 y_a9_proc_3 >= -2597
 c449: u_a7 - u_a9 - 1070 y_a9_proc_1 >= -2597
 c450: u_a10 - u_a7 - 1191 y_a7_proc_0 >= -2601
 c451: u_a10 - u_a7 - 1228 y_a7_proc_3 >= -3900
 c452: u_a10 - u_a7 - 950 y_a7_proc_1 >= -2601
 c453: u_a7 - u_a10 - 869 y_a10_proc_0 >= 2
 c454: u_a7 - u_a10 - 625 y_a10_proc_3 >= -1297
 c455: u_a7 - u_a10 - 1134 y_a10_proc_1 >= 2
 c456: u_a11 - u_a7 - 1191 y_a7_proc_0 >= -2599
 c457: u_a11 - u_a7 - 1158 y_a7_proc_2 >= -3898
 c458: u_a11 - u_a7 - 1228 y_a7_proc_3 >= -2599
 c459: u_a11 - u_a7 - 950 y_a7_proc_1 >= -3898
 c460: u_a7 - u_a11 - 1072 y_a11_proc_0 >= 0
 c461: u_a7 - u_a11 - 815 y_a11_proc_2 >= -1299
 c462: u_a7 - u_a11 - 667 y_a11_proc_3 >= 0
 c463: u_a7 - u_a11 - 1216 y_a11_proc_1 >= -1299
 c464: u_a12 - u_a7 - 1158 y_a7_proc_2 >= -2600
 c465: u_a12 - u_a7 - 1228 y_a7_proc_3 >= -3899
 c466: u_a12 - u_a7 - 950 y_a7_proc_1 >= -3899
 c467: u_a7 - u_a12 - 633 y_a12_proc_2 >= 1
 c468: u_a7 - u_a12 - 497 y_a12_proc_3 >= -1298
 c469: u_a7 - u_a12 - 748 y_a12_proc_1 >= -1298
 c470: u_a13 - u_a7 - 1191 y_a7_proc_0 >= -2600
 c471: u_a13 - u_a7 - 1228 y_a7_proc_3 >= -2600
 c472: u_a7 - u_a13 - 659 y_a13_proc_0 >= 1
 c473: u_a7 - u_a13 - 1179 y_a13_proc_3 >= 1
 c474: u_a14 - u_a7 - 1191 y_a7_proc_0 >= -2
 c475: u_a14 - u_a7 - 1158 y_a7_proc_2 >= -2600
 c476: u_a7 - u_a14 - 1007 y_a14_proc_0 >= 1
 c477: u_a7 - u_a14 - 1174 y_a14_proc_2 >= -2597
 c478: u_a9 - u_a8 - 974 y_a8_proc_0 >= -1
 c479: u_a9 - u_a8 - 1053 y_a8_proc_3 >= -2599
 c480: u_a9 - u_a8 - 845 y_a8_proc_1 >= -2599
 c481: u_a8 - u_a9 - 927 y_a9_proc_0 >= 0
 c482: u_a8 - u_a9 - 1035 y_a9_proc_3 >= -2598
 c483: u_a8 - u_a9 - 1070 y_a9_proc_1 >= -2598
 c484: u_a10 - u_a8 - 974 y_a8_proc_0 >= -2600
 c485: u_a10 - u_a8 - 1053 y_a8_proc_3 >= -3899
 c486: u_a10 - u_a8 - 845 y_a8_proc_1 >= -2600
 c487: u_a8 - u_a10 - 869 y_a10_proc_0 >= 1
 c488: u_a8 - u_a10 - 625 y_a10_proc_3 >= -1298
 c489: u_a8 - u_a10 - 1134 y_a10_proc_1 >= 1
 c490: u_a11 - u_a8 - 974 y_a8_proc_0 >= -2598
 c491: u_a11 - u_a8 - 1053 y_a8_proc_3 >= -2598
 c492: u_a11 - u_a8 - 845 y_a8_proc_1 >= -3897
 c493: u_a8 - u_a11 - 1072 y_a11_proc_0 >= -1
 c494: u_a8 - u_a11 - 667 y_a11_proc_3 >= -1
 c495: u_a8 - u_a11 - 1216 y_a11_proc_1 >= -1300
 c496: u_a12 - u_a8 - 1053 y_a8_proc_3 >= -5197
 c497: u_a12 - u_a8 - 845 y_a8_proc_1 >= -5197
 c498: u_a8 - u_a12 - 497 y_a12_proc_3 >= 0
 c499: u_a8 - u_a12 - 748 y_a12_proc_1 >= 0
 c500: u_a13 - u_a8 - 974 y_a8_proc_0 >= -2599
 c501: u_a13 - u_a8 - 1053 y_a8_proc_3 >= -2599
 c502: u_a8 - u_a13 - 659 y_a13_proc_0 >= 0
 c503: u_a8 - u_a13 - 1179 y_a13_proc_3 >= 0
 c504: u_a14 - u_a8 - 974 y_a8_proc_0 >= -1
 c505: u_a8 - u_a14 - 1007 y_a14_proc_0 >= 0
 c506: u_a10 - u_a9 - 927 y_a9_proc_0 >= -2599
 c507: u_a10 - u_a9 - 1035 y_a9_proc_3 >= -3898
 c508: u_a10 - u_a9 - 1070 y_a9_proc_1 >= -2599
 c509: u_a9 - u_a10 - 869 y_a10_proc_0 >= 0
 c510: u_a9 - u_a10 - 625 y_a10_proc_3 >= -1299
 c511: u_a9 - u_a10 - 1134 y_a10_proc_1 >= 0
 c512: u_a11 - u_a9 - 927 y_a9_proc_0 >= -2598
 c513: u_a11 - u_a9 - 1035 y_a9_proc_3 >= -2598
 c514: u_a11 - u_a9 - 1070 y_a9_proc_1 >= -3897
 c515: u_a9 - u_a11 - 1072 y_a11_proc_0 >= -1
 c516: u_a9 - u_a11 - 667 y_a11_proc_3 >= -1
 c517: u_a9 - u_a11 - 1216 y_a11_proc_1 >= -1300
 c518: u_a12 - u_a9 - 1035 y_a9_proc_3 >= -5196
 c519: u_a12 - u_a9 - 1070 y_a9_proc_1 >= -5196
 c520: u_a9 - u_a12 - 497 y_a12_proc_3 >= -1
 c521: u_a9 - u_a12 - 748 y_a12_proc_1 >= -1
 c522: u_a13 - u_a9 - 927 y_a9_proc_0 >= -2598
 c523: u_a13 - u_a9 - 1035 y_a9_proc_3 >= -2598
 c524: u_a9 - u_a13 - 659 y_a13_proc_0 >= -1
 c525: u_a9 - u_a13 - 1179 y_a13_proc_3 >= -1
 c526: u_a14 - u_a9 - 927 y_a9_proc_0 >= 0
 c527: u_a9 - u_a14 - 1007 y_a14_proc_0 >= -1
 c528: u_a11 - u_a10 - 869 y_a10_proc_0 >= -3896
 c529: u_a11 - u_a10 - 625 y_a10_proc_3 >= -2597
 c530: u_a11 - u_a10 - 1134 y_a10_proc_1 >= -2597
 c531: u_a10 - u_a11 - 1072 y_a11_proc_0 >= -1301
 c532: u_a10 - u_a11 - 667 y_a11_proc_3 >= -2
 c533: u_a10 - u_a11 - 1216 y_a11_proc_1 >= -2
 c534: u_a12 - u_a10 - 625 y_a10_proc_3 >= -3896
 c535: u_a12 - u_a10 - 1134 y_a10_proc_1 >= -2597
 c536: u_a10 - u_a12 - 497 y_a12_proc_3 >= -1301
 c537: u_a10 - u_a12 - 748 y_a12_proc_1 >= -2
 c538: u_a13 - u_a10 - 869 y_a10_proc_0 >= -3897
 c539: u_a13 - u_a10 - 625 y_a10_proc_3 >= -2598
 c540: u_a10 - u_a13 - 659 y_a13_proc_0 >= -1300
 c541: u_a10 - u_a13 - 1179 y_a13_proc_3 >= -1
 c542: u_a14 - u_a10 - 869 y_a10_proc_0 >= -2598
 c543: u_a10 - u_a14 - 1007 y_a14_proc_0 >= -1
 c544: u_a12 - u_a11 - 815 y_a11_proc_2 >= -2599
 c545: u_a12 - u_a11 - 667 y_a11_proc_3 >= -2599
 c546: u_a12 - u_a11 - 1216 y_a11_proc_1 >= -3898
 c547: u_a11 - u_a12 - 633 y_a12_proc_2 >= 0
 c548: u_a11 - u_a12 - 497 y_a12_proc_3 >= 0
 c549: u_a11 - u_a12 - 748 y_a12_proc_1 >= -1299
 c550: u_a13 - u_a11 - 1072 y_a11_proc_0 >= -2599
 c551: u_a13 - u_a11 - 667 y_a11_proc_3 >= -1
 c552: u_a11 - u_a13 - 659 y_a13_proc_0 >= -2598
 c553: u_a11 - u_a13 - 1179 y_a13_proc_3 >= 0
 c554: u_a14 - u_a11 - 1072 y_a11_proc_0 >= -2599
 c555: u_a14 - u_a11 - 815 y_a11_proc_2 >= -3898
 c556: u_a11 - u_a14 - 1007 y_a14_proc_0 >= 0
 c557: u_a11 - u_a14 - 1174 y_a14_proc_2 >= -1299
 c558: u_a13 - u_a12 - 497 y_a12_proc_3 >= -2599
 c559: u_a12 - u_a13 - 1179 y_a13_proc_3 >= 0
 c560: u_a14 - u_a12 - 633 y_a12_proc_2 >= -2598
 c561: u_a12 - u_a14 - 1174 y_a14_proc_2 >= -1
 c562: u_a14 - u_a13 - 659 y_a13_proc_0 >= -2598
 c563: u_a13 - u_a14 - 1007 y_a14_proc_0 >= -1

Bounds
End
